solution status: optimal solution found
objective value:                                    0
$_7_y                                              13 	(obj:0)
$_7_z                                              13 	(obj:0)
$_2_y                                              10 	(obj:0)
$_2_z                                              12 	(obj:0)
$_6_y                                              10 	(obj:0)
$_6_z                                              14 	(obj:0)
$_5_y                                               9 	(obj:0)
$_5_z                                              12 	(obj:0)
$_21_y                                             15 	(obj:0)
$_21_z                                             13 	(obj:0)
$_9_y                                              15 	(obj:0)
$_9_z                                              10 	(obj:0)
$_8_y                                              15 	(obj:0)
$_8_z                                              14 	(obj:0)
$_3_y                                              13 	(obj:0)
$_3_z                                              12 	(obj:0)
$_4_y                                              10 	(obj:0)
$_4_z                                              15 	(obj:0)
$_10_y                                             15 	(obj:0)
$_10_z                                              9 	(obj:0)
